10
1 0 73
2 0 18
2 1 82
3 0 63
3 1 44
3 2 44
4 0 57
4 1 57
4 2 89
4 3 27
5 0 10
5 1 46
5 2 21
5 3 26
5 4 90
6 0 14
6 1 47
6 2 34
6 3 18
6 4 51
6 5 36
7 0 92
7 1 94
7 2 74
7 3 90
7 4 56
7 5 5
7 6 49
8 0 86
8 1 68
8 2 97
8 3 78
8 4 17
8 5 96
8 6 82
8 7 21
9 0 74
9 1 54
9 2 6
9 3 93
9 4 46
9 5 18
9 6 79
9 7 42
9 8 9
